Route #1: 9 6 31 16 26 
Route #2: 27 5 8 17 36 34 24 29 12 
Route #3: 25 33 4 18 23 7 
Route #4: 3 13 35 2 37 30 19 
Route #5: 20 10 15 1 28 
Route #6: 22 11 32 21 14 
cost 837.935
execution_time 11.411
